benchmarks_vrp/CMT5/no_cluster/CMT5_13.vrp
NAME: CMT5_13
TYPE: CVRP
COMMENT: 1291.29 - Cluster Nr.13
DIMENSION: 14
CAPACITY: 200
EDGE_WEIGHT_TYPE: EUC_2D
NODE_COORD_TYPE: TWOD_COORDS
NODE_COORD_SECTION: 
9 55 50
8 40 60
7 55 54
10 49 42
11 35 35
14 37 56
13 49 58
12 42 57
1 50 50
2 53 52
6 47 47
4 37 52
3 41 49
5 49 49
DEPOT_SECTION: 
11
-1
DEMAND_SECTION: 
4 7
13 10
8 21
1 15
3 10
9 10
5 30
14 5
6 13
7 26
12 8
11 0
10 13
2 11
EOF
