benchmarks_vrp/CMT5/no_cluster/CMT5_13.tour
NAME: CMT5_13 solution
TYPE: TOUR
TOUR_SECTION:
11 3 4 14 8 12 13 7 2 9 1 5 6 10 -1
-1
EOF